(declare-fun bvlambda_28_ () (_ BitVec 1))
(declare-fun a98 () (Array (_ BitVec 1) (_ BitVec 10)))
(assert
(let (($e1 (_ bv0 1)))
(let (($e116 (select a98 (not   bvlambda_28_))))
(let (($e214 (concat bvlambda_28_ $e116)))
(let (($e246 ((_ extract 10 1) $e214)))
(let (($e247 (store a98 $e1 $e246)))
(let (($e248 (store $e247 bvlambda_28_ $e116)))
(let (($e249 (select $e248 (bvnot $e1))))
(let (($e252 ((_ extract 8 0) $e214)))
(let (($e253 ((_ extract 8 0) $e249)))
                  (bvult $e253 $e252)
                                                                                                                                                                                                                                                                                                                                                                                                                                                                                                                                                                                                                                                                                                                                          ))  ))))                               )                                                                                                 )                                                                               ))
